************************************************************************
file with basedata            : mm45_.bas
initial value random generator: 17554
************************************************************************
projects                      :  1
jobs (incl. supersource/sink ):  12
horizon                       :  79
RESOURCES
  - renewable                 :  2   R
  - nonrenewable              :  2   N
  - doubly constrained        :  0   D
************************************************************************
PROJECT INFORMATION:
pronr.  #jobs rel.date duedate tardcost  MPM-Time
    1     10      0       20        8       20
************************************************************************
PRECEDENCE RELATIONS:
jobnr.    #modes  #successors   successors
   0        1          3           1   2   3
   1        3          3           4   6   7
   2        3          2           7  10
   3        3          2           6  10
   4        3          2           5   8
   5        3          1          10
   6        3          1           9
   7        3          1           8
   8        3          1          11
   9        3          1          11
  10        3          1          11
  11        1          0        
************************************************************************
REQUESTS/DURATIONS:
jobnr. mode duration  R 1  R 2  R 3  R 4  E(W 1)  E(W 2)  E(W 3)
------------------------------------------------------------------------
  0      1     0       0    0    0    0     0       0       0
  1      1     4       8    3    2    4    44       8      16
  2      1     8       5    7    9    8    96      72      64
  3      1     2       4    7    5   10    22      10      20
  4      1     4       3    6    4    4    36      16      16
  5      1     7       9    8    8    3    119      56      21
  6      1     5       2    7    8    9    45      40      45
  7      1     1       6    6    7    7    12       7       7
  8      1     1       4    5    3    9     9       3       9
  9      1     2       9    6    7    7    30      14      14
 10      1     5       8    6    9    6    70      45      30
 11      1     0       0    0    0    0     0       0       0
************************************************************************
RESOURCEAVAILABILITIES:
  R 1  R 2  R 3
   30   52   46
************************************************************************
RESOURCE LIMITS:
jobnr.  l(R 1)  u(R 1)  l(R 2)  u(R 2)  l(R 3)  u(R 3)
------------------------------------------------------------------------
  0        0       0       0       0       0       0
  1        6      11       1       2       2       4
  2        7      12       5       9       4       8
  3        6      11       3       5       5      10
  4        5       9       2       4       2       4
  5        9      17       4       8       2       3
  6        5       9       4       8       5       9
  7        6      12       4       7       4       7
  8        5       9       2       3       5       9
  9        8      15       4       7       4       7
 10        7      14       5       9       3       6
 11        0       0       0       0       0       0
************************************************************************
SCENARIOS:
------------------------------------------------------------------------
RESOURCE k = 1
s = 1: (0, 31, 83, 14, 28, 116, 32, 12, 10, 49, 92, 0)
s = 2: (0, 42, 78, 19, 31, 101, 34, 12, 8, 25, 64, 0)
s = 3: (0, 71, 61, 27, 33, 123, 45, 14, 12, 48, 67, 0)
s = 4: (0, 54, 64, 28, 49, 149, 64, 17, 6, 22, 69, 0)
s = 5: (0, 59, 110, 25, 25, 106, 32, 20, 9, 27, 55, 0)
s = 6: (0, 60, 98, 39, 54, 129, 37, 15, 8, 17, 52, 0)
s = 7: (0, 50, 87, 26, 36, 151, 47, 16, 8, 35, 74, 0)
s = 8: (0, 75, 77, 23, 33, 182, 58, 15, 9, 32, 54, 0)
s = 9: (0, 53, 83, 12, 33, 71, 45, 13, 9, 39, 106, 0)
s = 10: (0, 32, 84, 13, 33, 106, 33, 14, 8, 30, 76, 0)
s = 11: (0, 61, 65, 19, 34, 173, 38, 19, 11, 31, 57, 0)
s = 12: (0, 34, 142, 14, 67, 105, 65, 17, 7, 25, 60, 0)
s = 13: (0, 63, 63, 26, 25, 113, 88, 13, 5, 32, 107, 0)
s = 14: (0, 68, 70, 18, 34, 135, 52, 10, 7, 36, 51, 0)
s = 15: (0, 55, 131, 24, 41, 173, 60, 9, 12, 23, 74, 0)
s = 16: (0, 39, 106, 14, 37, 187, 32, 14, 10, 26, 64, 0)
s = 17: (0, 41, 73, 24, 29, 121, 33, 9, 11, 23, 71, 0)
s = 18: (0, 45, 108, 21, 33, 96, 38, 11, 9, 45, 93, 0)
s = 19: (0, 41, 108, 25, 31, 149, 29, 10, 14, 33, 56, 0)
s = 20: (0, 41, 97, 28, 30, 67, 51, 11, 13, 43, 54, 0)
s = 21: (0, 58, 66, 18, 25, 113, 34, 12, 10, 43, 43, 0)
s = 22: (0, 59, 68, 29, 38, 145, 39, 11, 7, 33, 61, 0)
s = 23: (0, 43, 77, 22, 25, 73, 33, 10, 8, 35, 73, 0)
s = 24: (0, 44, 71, 34, 25, 98, 41, 17, 13, 40, 73, 0)
s = 25: (0, 46, 93, 13, 29, 101, 72, 16, 9, 18, 55, 0)
s = 26: (0, 53, 85, 30, 39, 138, 45, 16, 9, 28, 92, 0)
s = 27: (0, 32, 98, 15, 44, 95, 53, 16, 11, 39, 109, 0)
s = 28: (0, 53, 67, 27, 22, 86, 25, 9, 8, 25, 75, 0)
s = 29: (0, 49, 61, 21, 24, 109, 39, 9, 8, 44, 66, 0)
s = 30: (0, 33, 107, 24, 53, 115, 61, 14, 12, 44, 124, 0)
s = 31: (0, 37, 128, 19, 69, 142, 43, 15, 11, 30, 75, 0)
s = 32: (0, 29, 71, 19, 51, 118, 40, 13, 8, 40, 52, 0)
s = 33: (0, 36, 75, 16, 28, 104, 40, 16, 11, 26, 101, 0)
s = 34: (0, 36, 82, 22, 21, 80, 35, 17, 10, 24, 96, 0)
s = 35: (0, 51, 115, 13, 22, 109, 33, 19, 6, 24, 58, 0)
s = 36: (0, 51, 145, 19, 23, 158, 48, 16, 15, 32, 61, 0)
s = 37: (0, 58, 167, 14, 41, 113, 69, 18, 6, 28, 70, 0)
s = 38: (0, 40, 114, 16, 36, 136, 45, 14, 6, 33, 43, 0)
s = 39: (0, 76, 68, 18, 38, 88, 44, 11, 13, 37, 80, 0)
s = 40: (0, 52, 136, 17, 34, 220, 46, 13, 15, 32, 62, 0)
s = 41: (0, 32, 52, 28, 51, 78, 61, 18, 10, 45, 96, 0)
s = 42: (0, 41, 147, 18, 23, 123, 32, 15, 7, 31, 46, 0)
s = 43: (0, 43, 90, 17, 30, 126, 30, 12, 12, 31, 121, 0)
s = 44: (0, 41, 80, 24, 38, 99, 61, 12, 6, 22, 73, 0)
s = 45: (0, 51, 61, 19, 35, 98, 33, 22, 16, 20, 61, 0)
s = 46: (0, 78, 106, 16, 45, 128, 51, 16, 9, 27, 61, 0)
s = 47: (0, 62, 129, 23, 40, 87, 37, 19, 9, 27, 69, 0)
s = 48: (0, 39, 102, 26, 40, 91, 76, 8, 12, 36, 72, 0)
s = 49: (0, 60, 91, 20, 25, 141, 29, 7, 11, 24, 57, 0)
s = 50: (0, 61, 108, 23, 32, 92, 64, 13, 11, 27, 83, 0)
s = 51: (0, 32, 81, 14, 47, 179, 42, 11, 10, 35, 73, 0)
s = 52: (0, 37, 116, 17, 25, 81, 52, 12, 12, 21, 52, 0)
s = 53: (0, 33, 59, 16, 44, 102, 38, 11, 14, 27, 85, 0)
s = 54: (0, 27, 64, 17, 37, 106, 36, 13, 10, 24, 71, 0)
s = 55: (0, 50, 101, 23, 29, 77, 28, 11, 11, 22, 56, 0)
s = 56: (0, 43, 86, 20, 50, 86, 27, 11, 8, 21, 65, 0)
s = 57: (0, 42, 100, 17, 37, 128, 44, 13, 10, 23, 54, 0)
s = 58: (0, 33, 133, 15, 39, 104, 65, 15, 9, 47, 58, 0)
s = 59: (0, 63, 109, 34, 26, 154, 39, 8, 11, 28, 44, 0)
s = 60: (0, 69, 101, 20, 49, 99, 49, 17, 7, 33, 42, 0)
s = 61: (0, 58, 63, 25, 25, 136, 36, 10, 7, 22, 105, 0)
s = 62: (0, 43, 126, 28, 28, 69, 73, 11, 9, 32, 62, 0)
s = 63: (0, 39, 90, 21, 49, 107, 51, 10, 5, 34, 90, 0)
s = 64: (0, 39, 69, 20, 48, 82, 64, 11, 12, 28, 46, 0)
s = 65: (0, 56, 156, 16, 29, 107, 33, 15, 14, 22, 58, 0)
s = 66: (0, 47, 113, 26, 37, 109, 48, 10, 11, 21, 59, 0)
s = 67: (0, 29, 87, 14, 42, 146, 34, 14, 7, 17, 61, 0)
s = 68: (0, 38, 61, 33, 32, 94, 41, 21, 8, 38, 90, 0)
s = 69: (0, 57, 84, 25, 57, 81, 46, 17, 7, 34, 49, 0)
s = 70: (0, 46, 95, 30, 40, 75, 33, 15, 7, 18, 43, 0)
s = 71: (0, 36, 62, 28, 21, 138, 60, 12, 9, 53, 84, 0)
s = 72: (0, 49, 83, 20, 30, 91, 51, 9, 9, 33, 43, 0)
s = 73: (0, 42, 111, 22, 51, 80, 46, 10, 9, 31, 107, 0)
s = 74: (0, 39, 140, 25, 25, 175, 42, 13, 7, 28, 47, 0)
s = 75: (0, 67, 78, 43, 21, 134, 28, 10, 10, 40, 47, 0)
s = 76: (0, 37, 69, 28, 35, 118, 42, 13, 11, 40, 98, 0)
s = 77: (0, 56, 99, 28, 52, 121, 35, 14, 11, 31, 58, 0)
s = 78: (0, 30, 139, 28, 64, 91, 42, 15, 10, 28, 72, 0)
s = 79: (0, 35, 145, 15, 26, 77, 59, 12, 9, 30, 82, 0)
s = 80: (0, 33, 67, 24, 30, 152, 31, 15, 8, 24, 94, 0)
s = 81: (0, 49, 105, 21, 48, 96, 49, 11, 13, 36, 61, 0)
s = 82: (0, 29, 147, 15, 34, 195, 55, 15, 7, 30, 68, 0)
s = 83: (0, 52, 103, 14, 36, 121, 40, 18, 11, 32, 47, 0)
s = 84: (0, 67, 72, 19, 39, 175, 41, 9, 7, 30, 84, 0)
s = 85: (0, 31, 78, 23, 27, 145, 26, 12, 11, 40, 69, 0)
s = 86: (0, 50, 150, 35, 26, 113, 32, 8, 8, 44, 97, 0)
s = 87: (0, 58, 100, 15, 48, 160, 48, 16, 7, 29, 79, 0)
s = 88: (0, 36, 58, 15, 36, 103, 38, 13, 8, 28, 74, 0)
s = 89: (0, 47, 59, 23, 49, 115, 51, 9, 12, 17, 80, 0)
s = 90: (0, 37, 66, 34, 35, 79, 61, 15, 11, 26, 46, 0)
s = 91: (0, 24, 90, 19, 38, 193, 65, 8, 13, 37, 71, 0)
s = 92: (0, 39, 116, 19, 32, 120, 29, 18, 12, 25, 107, 0)
s = 93: (0, 52, 84, 31, 32, 95, 43, 12, 9, 33, 60, 0)
s = 94: (0, 31, 62, 33, 38, 86, 39, 12, 6, 27, 52, 0)
s = 95: (0, 36, 97, 18, 29, 129, 47, 13, 11, 41, 65, 0)
s = 96: (0, 38, 109, 18, 31, 95, 61, 12, 15, 42, 47, 0)
s = 97: (0, 56, 79, 35, 34, 98, 56, 15, 8, 30, 47, 0)
s = 98: (0, 40, 89, 38, 31, 121, 59, 8, 12, 32, 41, 0)
s = 99: (0, 40, 65, 16, 58, 88, 71, 14, 9, 34, 108, 0)
s = 100: (0, 41, 103, 24, 45, 178, 34, 16, 7, 26, 76, 0)
s = 101: (0, 43, 72, 30, 24, 152, 55, 13, 7, 28, 57, 0)
s = 102: (0, 33, 85, 13, 34, 169, 44, 11, 10, 35, 80, 0)
s = 103: (0, 45, 68, 18, 59, 64, 59, 12, 9, 32, 51, 0)
s = 104: (0, 48, 68, 30, 37, 159, 52, 11, 7, 36, 57, 0)
s = 105: (0, 54, 120, 22, 33, 180, 45, 11, 7, 30, 102, 0)
s = 106: (0, 47, 56, 23, 35, 130, 47, 10, 12, 30, 72, 0)
s = 107: (0, 37, 130, 28, 37, 213, 34, 11, 7, 31, 61, 0)
s = 108: (0, 35, 77, 14, 23, 112, 45, 11, 9, 25, 47, 0)
s = 109: (0, 45, 132, 19, 26, 158, 42, 11, 12, 29, 41, 0)
s = 110: (0, 34, 73, 16, 37, 128, 62, 8, 8, 29, 72, 0)
s = 111: (0, 48, 100, 17, 31, 103, 37, 14, 9, 47, 53, 0)
s = 112: (0, 42, 101, 17, 32, 89, 44, 16, 6, 33, 41, 0)
s = 113: (0, 33, 62, 21, 46, 116, 43, 22, 9, 19, 70, 0)
s = 114: (0, 56, 108, 25, 37, 109, 36, 8, 9, 27, 58, 0)
s = 115: (0, 31, 140, 34, 29, 221, 46, 13, 8, 30, 67, 0)
s = 116: (0, 49, 101, 18, 28, 168, 24, 11, 12, 32, 67, 0)
s = 117: (0, 55, 63, 14, 51, 125, 38, 8, 10, 45, 82, 0)
s = 118: (0, 34, 78, 14, 32, 152, 38, 9, 9, 31, 66, 0)
s = 119: (0, 42, 104, 37, 48, 163, 53, 10, 7, 25, 119, 0)
s = 120: (0, 26, 103, 24, 34, 100, 42, 15, 6, 23, 69, 0)
s = 121: (0, 56, 87, 14, 46, 176, 29, 14, 9, 33, 57, 0)
s = 122: (0, 33, 79, 30, 64, 138, 28, 8, 9, 27, 48, 0)
s = 123: (0, 36, 71, 31, 31, 107, 36, 20, 10, 30, 95, 0)
s = 124: (0, 33, 86, 31, 32, 104, 50, 11, 8, 23, 71, 0)
s = 125: (0, 57, 119, 35, 38, 143, 47, 9, 10, 45, 76, 0)
s = 126: (0, 43, 114, 20, 44, 123, 61, 11, 15, 26, 60, 0)
s = 127: (0, 42, 98, 17, 38, 90, 48, 8, 6, 48, 39, 0)
s = 128: (0, 27, 92, 36, 27, 106, 35, 15, 6, 53, 78, 0)
s = 129: (0, 33, 118, 16, 35, 101, 33, 12, 7, 26, 52, 0)
s = 130: (0, 43, 127, 26, 44, 141, 44, 9, 12, 28, 108, 0)
s = 131: (0, 44, 129, 15, 40, 145, 44, 10, 11, 19, 88, 0)
s = 132: (0, 32, 99, 27, 37, 168, 59, 12, 11, 49, 55, 0)
s = 133: (0, 35, 123, 20, 35, 135, 43, 9, 9, 26, 75, 0)
s = 134: (0, 31, 79, 34, 24, 82, 44, 22, 10, 40, 49, 0)
s = 135: (0, 36, 78, 25, 50, 87, 28, 8, 7, 32, 64, 0)
s = 136: (0, 43, 128, 23, 53, 66, 55, 11, 8, 38, 70, 0)
s = 137: (0, 54, 103, 21, 62, 169, 57, 10, 10, 31, 75, 0)
s = 138: (0, 50, 121, 12, 27, 162, 47, 14, 9, 25, 93, 0)
s = 139: (0, 58, 146, 20, 28, 130, 44, 16, 13, 42, 101, 0)
s = 140: (0, 41, 95, 19, 46, 84, 33, 13, 11, 21, 49, 0)
s = 141: (0, 27, 106, 34, 25, 110, 50, 12, 9, 39, 112, 0)
s = 142: (0, 63, 86, 22, 35, 164, 39, 10, 9, 24, 62, 0)
s = 143: (0, 67, 127, 14, 42, 96, 48, 10, 9, 18, 84, 0)
s = 144: (0, 32, 80, 21, 57, 107, 60, 12, 6, 27, 67, 0)
s = 145: (0, 56, 112, 30, 41, 95, 36, 16, 7, 35, 70, 0)
s = 146: (0, 28, 73, 19, 45, 94, 56, 15, 9, 25, 70, 0)
s = 147: (0, 27, 126, 20, 38, 96, 38, 11, 13, 25, 68, 0)
s = 148: (0, 57, 74, 21, 48, 128, 26, 15, 8, 24, 80, 0)
s = 149: (0, 36, 120, 20, 25, 193, 60, 12, 9, 33, 67, 0)
s = 150: (0, 37, 63, 20, 43, 96, 43, 15, 12, 30, 81, 0)
s = 151: (0, 42, 144, 20, 50, 127, 49, 9, 14, 30, 69, 0)
s = 152: (0, 30, 117, 26, 35, 63, 39, 12, 14, 29, 42, 0)
s = 153: (0, 60, 111, 12, 22, 167, 57, 12, 14, 40, 43, 0)
s = 154: (0, 38, 111, 24, 33, 132, 62, 8, 12, 22, 60, 0)
s = 155: (0, 43, 84, 29, 30, 143, 31, 15, 10, 20, 85, 0)
s = 156: (0, 33, 143, 18, 42, 76, 46, 14, 11, 55, 76, 0)
s = 157: (0, 42, 134, 21, 33, 103, 37, 8, 12, 44, 59, 0)
s = 158: (0, 47, 59, 17, 42, 109, 25, 10, 6, 21, 78, 0)
s = 159: (0, 43, 83, 37, 28, 145, 37, 13, 6, 38, 100, 0)
s = 160: (0, 44, 123, 25, 31, 98, 27, 8, 7, 40, 85, 0)
s = 161: (0, 53, 96, 25, 42, 132, 45, 10, 11, 19, 44, 0)
s = 162: (0, 65, 94, 28, 39, 126, 49, 16, 10, 19, 60, 0)
s = 163: (0, 44, 133, 26, 51, 72, 30, 14, 14, 25, 75, 0)
s = 164: (0, 33, 89, 20, 34, 128, 40, 8, 6, 30, 52, 0)
s = 165: (0, 51, 92, 19, 47, 203, 73, 9, 8, 38, 82, 0)
s = 166: (0, 54, 76, 18, 31, 90, 53, 9, 7, 18, 111, 0)
s = 167: (0, 32, 90, 16, 47, 90, 43, 9, 10, 30, 59, 0)
s = 168: (0, 43, 68, 23, 29, 102, 25, 12, 8, 28, 78, 0)
s = 169: (0, 37, 86, 35, 40, 123, 43, 7, 9, 22, 93, 0)
s = 170: (0, 42, 95, 23, 27, 127, 27, 16, 9, 33, 56, 0)
s = 171: (0, 51, 98, 21, 26, 159, 39, 12, 9, 36, 55, 0)
s = 172: (0, 38, 53, 20, 44, 72, 55, 10, 6, 31, 68, 0)
s = 173: (0, 35, 64, 22, 23, 97, 26, 11, 7, 34, 74, 0)
s = 174: (0, 52, 93, 22, 30, 116, 29, 10, 11, 30, 42, 0)
s = 175: (0, 33, 83, 16, 29, 78, 30, 14, 9, 29, 55, 0)
s = 176: (0, 67, 117, 33, 27, 88, 50, 8, 14, 49, 41, 0)
s = 177: (0, 35, 58, 16, 32, 217, 66, 10, 14, 42, 91, 0)
s = 178: (0, 45, 131, 28, 32, 150, 57, 14, 7, 20, 82, 0)
s = 179: (0, 29, 119, 22, 24, 124, 32, 17, 13, 24, 94, 0)
s = 180: (0, 58, 86, 22, 38, 175, 58, 19, 12, 24, 91, 0)
s = 181: (0, 66, 122, 22, 31, 126, 37, 11, 11, 37, 69, 0)
s = 182: (0, 45, 77, 25, 47, 101, 51, 14, 12, 45, 40, 0)
s = 183: (0, 56, 63, 31, 36, 80, 68, 12, 9, 35, 61, 0)
s = 184: (0, 65, 101, 19, 43, 127, 39, 11, 8, 28, 67, 0)
s = 185: (0, 58, 85, 20, 25, 102, 32, 15, 10, 29, 87, 0)
s = 186: (0, 25, 98, 30, 45, 109, 39, 9, 11, 29, 40, 0)
s = 187: (0, 38, 83, 26, 33, 109, 31, 8, 10, 21, 68, 0)
s = 188: (0, 38, 84, 14, 50, 126, 41, 16, 6, 26, 72, 0)
s = 189: (0, 53, 91, 24, 68, 179, 66, 13, 9, 24, 87, 0)
s = 190: (0, 49, 86, 15, 23, 75, 52, 12, 6, 45, 100, 0)
s = 191: (0, 34, 119, 21, 26, 74, 76, 15, 10, 30, 62, 0)
s = 192: (0, 58, 52, 23, 26, 185, 63, 10, 6, 36, 48, 0)
s = 193: (0, 39, 94, 13, 39, 108, 26, 19, 10, 41, 92, 0)
s = 194: (0, 24, 63, 18, 31, 145, 63, 7, 10, 36, 87, 0)
s = 195: (0, 44, 61, 27, 46, 93, 54, 7, 11, 20, 110, 0)
s = 196: (0, 42, 114, 21, 35, 96, 26, 9, 11, 16, 49, 0)
s = 197: (0, 79, 63, 17, 40, 154, 48, 14, 6, 26, 64, 0)
s = 198: (0, 36, 70, 19, 58, 140, 58, 15, 14, 43, 118, 0)
s = 199: (0, 36, 75, 25, 36, 99, 64, 15, 14, 42, 122, 0)
s = 200: (0, 29, 90, 26, 32, 165, 37, 12, 11, 26, 59, 0)
------------------------------------------------------------------------
RESOURCE k = 2
s = 1: (0, 6, 63, 7, 13, 55, 28, 7, 4, 23, 59, 0)
s = 2: (0, 8, 59, 9, 14, 48, 30, 7, 3, 12, 41, 0)
s = 3: (0, 13, 46, 13, 15, 58, 40, 8, 4, 23, 43, 0)
s = 4: (0, 10, 48, 13, 22, 70, 57, 10, 2, 10, 45, 0)
s = 5: (0, 11, 82, 12, 12, 50, 29, 12, 3, 13, 36, 0)
s = 6: (0, 11, 74, 18, 24, 61, 33, 9, 3, 8, 34, 0)
s = 7: (0, 10, 65, 12, 16, 71, 42, 10, 3, 17, 48, 0)
s = 8: (0, 14, 58, 11, 15, 86, 52, 9, 3, 15, 35, 0)
s = 9: (0, 10, 63, 6, 15, 34, 40, 8, 3, 18, 68, 0)
s = 10: (0, 6, 63, 6, 15, 50, 30, 8, 3, 14, 49, 0)
s = 11: (0, 12, 49, 9, 16, 82, 34, 12, 4, 15, 37, 0)
s = 12: (0, 7, 107, 7, 30, 50, 58, 10, 3, 12, 39, 0)
s = 13: (0, 12, 47, 12, 11, 53, 78, 8, 2, 15, 69, 0)
s = 14: (0, 13, 52, 8, 15, 64, 46, 6, 3, 17, 33, 0)
s = 15: (0, 10, 98, 11, 18, 82, 53, 6, 4, 11, 48, 0)
s = 16: (0, 7, 80, 7, 17, 88, 29, 8, 4, 12, 41, 0)
s = 17: (0, 8, 55, 11, 13, 57, 29, 6, 4, 11, 46, 0)
s = 18: (0, 9, 81, 10, 15, 46, 33, 7, 3, 21, 60, 0)
s = 19: (0, 8, 81, 11, 14, 71, 26, 6, 5, 16, 36, 0)
s = 20: (0, 8, 73, 13, 14, 32, 46, 7, 5, 20, 35, 0)
s = 21: (0, 11, 50, 8, 11, 53, 30, 7, 4, 20, 28, 0)
s = 22: (0, 11, 51, 13, 17, 69, 35, 7, 3, 16, 40, 0)
s = 23: (0, 8, 58, 10, 11, 34, 29, 6, 3, 16, 47, 0)
s = 24: (0, 8, 54, 16, 11, 46, 37, 10, 5, 19, 47, 0)
s = 25: (0, 9, 70, 6, 13, 48, 64, 9, 3, 9, 36, 0)
s = 26: (0, 10, 64, 14, 18, 65, 40, 10, 3, 13, 60, 0)
s = 27: (0, 6, 74, 7, 20, 45, 47, 10, 4, 18, 70, 0)
s = 28: (0, 10, 51, 13, 10, 41, 22, 6, 3, 12, 49, 0)
s = 29: (0, 9, 46, 10, 11, 52, 34, 5, 3, 21, 43, 0)
s = 30: (0, 6, 80, 11, 24, 55, 54, 8, 4, 21, 80, 0)
s = 31: (0, 7, 96, 9, 31, 67, 38, 9, 4, 14, 49, 0)
s = 32: (0, 6, 54, 9, 23, 56, 36, 8, 3, 19, 33, 0)
s = 33: (0, 7, 57, 8, 13, 49, 36, 10, 4, 12, 65, 0)
s = 34: (0, 7, 62, 10, 10, 38, 32, 10, 4, 11, 62, 0)
s = 35: (0, 10, 87, 6, 10, 52, 29, 11, 2, 12, 38, 0)
s = 36: (0, 10, 109, 9, 11, 75, 43, 9, 5, 15, 39, 0)
s = 37: (0, 11, 125, 7, 19, 53, 62, 11, 2, 13, 45, 0)
s = 38: (0, 8, 86, 7, 16, 64, 40, 8, 2, 15, 28, 0)
s = 39: (0, 14, 51, 9, 17, 42, 39, 6, 5, 17, 52, 0)
s = 40: (0, 10, 102, 8, 16, 104, 41, 8, 5, 15, 40, 0)
s = 41: (0, 6, 39, 13, 23, 37, 54, 11, 4, 21, 62, 0)
s = 42: (0, 8, 111, 9, 11, 58, 29, 9, 3, 15, 30, 0)
s = 43: (0, 8, 68, 8, 13, 60, 27, 7, 4, 15, 78, 0)
s = 44: (0, 8, 60, 11, 17, 47, 54, 7, 2, 11, 47, 0)
s = 45: (0, 10, 46, 9, 16, 46, 29, 13, 6, 10, 39, 0)
s = 46: (0, 15, 80, 7, 20, 61, 46, 10, 3, 13, 39, 0)
s = 47: (0, 12, 97, 11, 18, 41, 33, 11, 3, 13, 45, 0)
s = 48: (0, 7, 76, 12, 18, 43, 67, 5, 4, 17, 46, 0)
s = 49: (0, 11, 69, 9, 11, 67, 26, 4, 4, 11, 37, 0)
s = 50: (0, 11, 81, 11, 15, 44, 57, 8, 4, 13, 54, 0)
s = 51: (0, 6, 61, 7, 21, 84, 38, 7, 4, 17, 47, 0)
s = 52: (0, 7, 87, 8, 12, 39, 46, 7, 4, 10, 33, 0)
s = 53: (0, 6, 44, 8, 20, 48, 34, 7, 5, 13, 55, 0)
s = 54: (0, 5, 48, 8, 17, 50, 32, 8, 4, 12, 46, 0)
s = 55: (0, 10, 76, 11, 13, 36, 25, 7, 4, 11, 36, 0)
s = 56: (0, 8, 65, 9, 23, 41, 24, 6, 3, 10, 42, 0)
s = 57: (0, 8, 75, 8, 17, 61, 39, 8, 4, 11, 35, 0)
s = 58: (0, 6, 100, 7, 18, 49, 58, 9, 3, 22, 37, 0)
s = 59: (0, 12, 82, 16, 12, 73, 35, 5, 4, 13, 28, 0)
s = 60: (0, 13, 76, 9, 22, 47, 43, 10, 3, 16, 27, 0)
s = 61: (0, 11, 47, 12, 12, 64, 32, 6, 3, 10, 68, 0)
s = 62: (0, 8, 94, 13, 13, 33, 65, 7, 3, 15, 40, 0)
s = 63: (0, 8, 68, 10, 22, 50, 45, 6, 2, 16, 58, 0)
s = 64: (0, 8, 52, 9, 22, 39, 57, 7, 4, 13, 30, 0)
s = 65: (0, 11, 117, 7, 13, 51, 29, 9, 5, 11, 37, 0)
s = 66: (0, 9, 85, 12, 17, 51, 43, 6, 4, 10, 38, 0)
s = 67: (0, 6, 66, 7, 19, 69, 30, 9, 3, 8, 39, 0)
s = 68: (0, 7, 46, 15, 14, 45, 37, 13, 3, 18, 58, 0)
s = 69: (0, 11, 63, 12, 26, 38, 41, 10, 3, 16, 32, 0)
s = 70: (0, 9, 71, 14, 18, 35, 29, 9, 3, 9, 28, 0)
s = 71: (0, 7, 47, 13, 10, 65, 54, 7, 3, 25, 54, 0)
s = 72: (0, 9, 62, 9, 13, 43, 45, 6, 3, 16, 28, 0)
s = 73: (0, 8, 83, 10, 23, 38, 41, 6, 3, 15, 69, 0)
s = 74: (0, 8, 105, 11, 11, 83, 38, 8, 3, 13, 30, 0)
s = 75: (0, 13, 58, 20, 10, 63, 25, 6, 4, 19, 30, 0)
s = 76: (0, 7, 52, 13, 16, 56, 37, 8, 4, 19, 63, 0)
s = 77: (0, 11, 75, 13, 23, 57, 32, 8, 4, 15, 38, 0)
s = 78: (0, 6, 104, 13, 29, 43, 38, 9, 4, 13, 46, 0)
s = 79: (0, 7, 109, 7, 12, 36, 52, 7, 3, 14, 53, 0)
s = 80: (0, 6, 50, 11, 14, 72, 28, 9, 3, 12, 61, 0)
s = 81: (0, 9, 79, 10, 21, 46, 44, 6, 5, 17, 40, 0)
s = 82: (0, 6, 111, 7, 15, 92, 49, 9, 3, 14, 44, 0)
s = 83: (0, 10, 77, 7, 16, 57, 35, 11, 4, 15, 31, 0)
s = 84: (0, 13, 54, 9, 17, 83, 37, 5, 3, 14, 54, 0)
s = 85: (0, 6, 58, 11, 12, 69, 23, 7, 4, 19, 45, 0)
s = 86: (0, 10, 113, 16, 12, 54, 28, 5, 3, 21, 62, 0)
s = 87: (0, 11, 75, 7, 22, 76, 43, 10, 3, 14, 51, 0)
s = 88: (0, 7, 44, 7, 16, 49, 34, 8, 3, 13, 48, 0)
s = 89: (0, 9, 45, 11, 22, 55, 45, 5, 4, 8, 52, 0)
s = 90: (0, 7, 49, 16, 16, 37, 54, 9, 4, 12, 30, 0)
s = 91: (0, 5, 68, 9, 17, 91, 58, 5, 5, 17, 46, 0)
s = 92: (0, 8, 87, 9, 14, 57, 26, 11, 4, 12, 69, 0)
s = 93: (0, 10, 63, 15, 15, 45, 38, 7, 3, 16, 39, 0)
s = 94: (0, 6, 46, 15, 17, 41, 35, 7, 2, 13, 34, 0)
s = 95: (0, 7, 73, 8, 13, 61, 41, 8, 4, 19, 42, 0)
s = 96: (0, 7, 82, 8, 14, 45, 54, 7, 5, 20, 31, 0)
s = 97: (0, 11, 59, 16, 16, 46, 50, 9, 3, 14, 30, 0)
s = 98: (0, 8, 67, 17, 14, 57, 52, 5, 4, 15, 26, 0)
s = 99: (0, 8, 49, 8, 26, 42, 63, 8, 3, 16, 69, 0)
s = 100: (0, 8, 77, 11, 20, 84, 30, 9, 3, 13, 49, 0)
s = 101: (0, 8, 54, 14, 11, 72, 49, 8, 3, 13, 37, 0)
s = 102: (0, 6, 64, 6, 16, 80, 39, 7, 4, 16, 52, 0)
s = 103: (0, 9, 51, 8, 26, 30, 53, 7, 3, 15, 33, 0)
s = 104: (0, 9, 51, 14, 17, 75, 46, 7, 3, 17, 37, 0)
s = 105: (0, 10, 90, 10, 15, 85, 40, 6, 3, 14, 65, 0)
s = 106: (0, 9, 42, 11, 16, 61, 42, 6, 4, 14, 46, 0)
s = 107: (0, 7, 98, 13, 17, 101, 30, 6, 3, 15, 39, 0)
s = 108: (0, 7, 58, 7, 11, 53, 40, 7, 3, 12, 30, 0)
s = 109: (0, 9, 99, 9, 12, 74, 38, 7, 4, 14, 27, 0)
s = 110: (0, 7, 55, 8, 17, 60, 55, 5, 3, 14, 46, 0)
s = 111: (0, 9, 75, 8, 14, 49, 33, 9, 3, 22, 34, 0)
s = 112: (0, 8, 76, 8, 14, 42, 39, 9, 2, 16, 27, 0)
s = 113: (0, 6, 47, 10, 21, 55, 38, 13, 3, 9, 45, 0)
s = 114: (0, 11, 81, 12, 17, 52, 32, 5, 3, 13, 37, 0)
s = 115: (0, 6, 105, 16, 13, 104, 41, 8, 3, 14, 43, 0)
s = 116: (0, 9, 76, 8, 13, 79, 21, 7, 4, 15, 43, 0)
s = 117: (0, 10, 47, 7, 23, 59, 34, 5, 4, 21, 53, 0)
s = 118: (0, 7, 59, 7, 14, 72, 34, 5, 3, 15, 42, 0)
s = 119: (0, 8, 78, 17, 22, 77, 47, 6, 3, 12, 77, 0)
s = 120: (0, 5, 78, 11, 15, 47, 37, 9, 2, 11, 45, 0)
s = 121: (0, 11, 65, 7, 21, 83, 26, 8, 3, 16, 37, 0)
s = 122: (0, 6, 59, 14, 29, 65, 25, 5, 3, 13, 31, 0)
s = 123: (0, 7, 53, 14, 14, 50, 32, 12, 4, 14, 61, 0)
s = 124: (0, 6, 64, 15, 15, 49, 45, 7, 3, 11, 46, 0)
s = 125: (0, 11, 89, 16, 17, 68, 42, 5, 4, 21, 49, 0)
s = 126: (0, 8, 86, 9, 20, 58, 55, 7, 5, 12, 39, 0)
s = 127: (0, 8, 74, 8, 17, 42, 43, 5, 2, 23, 25, 0)
s = 128: (0, 5, 69, 17, 12, 50, 31, 9, 2, 25, 50, 0)
s = 129: (0, 6, 88, 7, 16, 48, 30, 7, 3, 12, 33, 0)
s = 130: (0, 8, 96, 12, 20, 67, 39, 5, 4, 13, 69, 0)
s = 131: (0, 8, 97, 7, 18, 68, 39, 6, 4, 9, 57, 0)
s = 132: (0, 6, 74, 13, 17, 79, 53, 7, 4, 23, 35, 0)
s = 133: (0, 7, 92, 9, 16, 64, 39, 5, 3, 12, 48, 0)
s = 134: (0, 6, 59, 16, 11, 39, 39, 13, 4, 19, 32, 0)
s = 135: (0, 7, 59, 11, 22, 41, 25, 5, 3, 15, 41, 0)
s = 136: (0, 8, 96, 11, 24, 31, 49, 7, 3, 18, 45, 0)
s = 137: (0, 10, 78, 10, 28, 80, 50, 6, 4, 15, 48, 0)
s = 138: (0, 9, 91, 6, 12, 77, 42, 8, 3, 12, 60, 0)
s = 139: (0, 11, 110, 9, 13, 61, 39, 10, 5, 20, 65, 0)
s = 140: (0, 8, 72, 9, 21, 40, 29, 8, 4, 10, 32, 0)
s = 141: (0, 5, 80, 16, 12, 52, 44, 7, 3, 18, 72, 0)
s = 142: (0, 12, 65, 10, 16, 77, 35, 6, 3, 11, 40, 0)
s = 143: (0, 13, 95, 7, 19, 45, 43, 6, 3, 9, 54, 0)
s = 144: (0, 6, 60, 10, 26, 50, 53, 7, 2, 13, 43, 0)
s = 145: (0, 11, 84, 14, 18, 45, 32, 10, 3, 16, 45, 0)
s = 146: (0, 6, 55, 9, 20, 45, 49, 9, 3, 12, 45, 0)
s = 147: (0, 5, 94, 9, 17, 45, 34, 7, 5, 12, 44, 0)
s = 148: (0, 11, 56, 10, 22, 60, 23, 9, 3, 12, 52, 0)
s = 149: (0, 7, 90, 9, 11, 91, 53, 7, 3, 15, 43, 0)
s = 150: (0, 7, 47, 9, 19, 45, 39, 9, 4, 14, 52, 0)
s = 151: (0, 8, 108, 9, 23, 60, 44, 6, 5, 14, 45, 0)
s = 152: (0, 6, 88, 12, 16, 30, 35, 7, 5, 14, 27, 0)
s = 153: (0, 11, 83, 6, 10, 79, 51, 7, 5, 19, 28, 0)
s = 154: (0, 7, 83, 11, 15, 63, 55, 5, 4, 10, 39, 0)
s = 155: (0, 8, 63, 13, 14, 68, 27, 9, 4, 10, 55, 0)
s = 156: (0, 6, 107, 8, 19, 36, 41, 8, 4, 26, 49, 0)
s = 157: (0, 8, 100, 10, 15, 49, 33, 5, 4, 21, 38, 0)
s = 158: (0, 9, 44, 8, 19, 52, 22, 6, 2, 10, 50, 0)
s = 159: (0, 8, 62, 17, 13, 69, 33, 8, 2, 18, 65, 0)
s = 160: (0, 8, 92, 12, 14, 47, 24, 5, 3, 19, 55, 0)
s = 161: (0, 10, 72, 12, 19, 62, 40, 6, 4, 9, 29, 0)
s = 162: (0, 12, 71, 13, 18, 59, 43, 10, 4, 9, 39, 0)
s = 163: (0, 8, 100, 12, 23, 34, 26, 9, 5, 12, 48, 0)
s = 164: (0, 6, 67, 9, 15, 61, 35, 5, 2, 14, 34, 0)
s = 165: (0, 10, 69, 9, 21, 96, 65, 6, 3, 18, 53, 0)
s = 166: (0, 10, 57, 8, 14, 43, 47, 6, 3, 9, 71, 0)
s = 167: (0, 6, 68, 8, 21, 42, 38, 6, 4, 14, 38, 0)
s = 168: (0, 8, 51, 11, 13, 48, 22, 7, 3, 13, 51, 0)
s = 169: (0, 7, 65, 16, 18, 58, 38, 5, 3, 10, 60, 0)
s = 170: (0, 8, 71, 11, 12, 60, 24, 10, 3, 16, 36, 0)
s = 171: (0, 10, 74, 10, 12, 75, 35, 7, 3, 17, 36, 0)
s = 172: (0, 7, 40, 9, 20, 34, 49, 6, 2, 15, 44, 0)
s = 173: (0, 7, 48, 10, 11, 46, 23, 7, 3, 16, 48, 0)
s = 174: (0, 10, 70, 10, 14, 55, 26, 6, 4, 14, 27, 0)
s = 175: (0, 6, 62, 7, 13, 37, 27, 8, 3, 14, 36, 0)
s = 176: (0, 13, 88, 15, 12, 42, 44, 5, 5, 23, 27, 0)
s = 177: (0, 7, 43, 8, 14, 103, 59, 6, 5, 20, 58, 0)
s = 178: (0, 9, 98, 13, 15, 71, 51, 8, 3, 10, 53, 0)
s = 179: (0, 6, 90, 10, 11, 59, 29, 10, 5, 12, 61, 0)
s = 180: (0, 11, 64, 10, 17, 82, 52, 11, 4, 12, 58, 0)
s = 181: (0, 12, 92, 10, 14, 60, 33, 7, 4, 17, 44, 0)
s = 182: (0, 9, 58, 12, 21, 48, 46, 8, 4, 21, 26, 0)
s = 183: (0, 11, 47, 14, 16, 38, 61, 7, 3, 17, 39, 0)
s = 184: (0, 12, 76, 9, 19, 60, 35, 6, 3, 14, 43, 0)
s = 185: (0, 11, 64, 9, 11, 48, 29, 9, 4, 14, 56, 0)
s = 186: (0, 5, 74, 14, 20, 51, 35, 5, 4, 14, 26, 0)
s = 187: (0, 7, 63, 12, 15, 52, 27, 5, 4, 10, 44, 0)
s = 188: (0, 7, 63, 7, 23, 60, 37, 10, 2, 12, 46, 0)
s = 189: (0, 10, 68, 11, 31, 84, 59, 8, 3, 11, 56, 0)
s = 190: (0, 9, 65, 7, 10, 36, 47, 7, 2, 21, 64, 0)
s = 191: (0, 7, 89, 10, 12, 35, 68, 9, 4, 14, 40, 0)
s = 192: (0, 11, 39, 11, 12, 87, 56, 6, 2, 17, 31, 0)
s = 193: (0, 8, 71, 6, 17, 51, 23, 11, 4, 19, 59, 0)
s = 194: (0, 5, 47, 9, 14, 69, 56, 4, 4, 17, 56, 0)
s = 195: (0, 8, 46, 13, 21, 44, 48, 4, 4, 9, 71, 0)
s = 196: (0, 8, 85, 10, 16, 45, 24, 5, 4, 8, 32, 0)
s = 197: (0, 15, 48, 8, 18, 73, 42, 9, 2, 12, 41, 0)
s = 198: (0, 7, 53, 9, 26, 66, 51, 9, 5, 20, 76, 0)
s = 199: (0, 7, 57, 12, 16, 47, 57, 9, 5, 20, 79, 0)
s = 200: (0, 6, 68, 12, 14, 78, 33, 7, 4, 12, 38, 0)
------------------------------------------------------------------------
RESOURCE k = 3
s = 1: (0, 12, 56, 13, 13, 21, 32, 7, 10, 23, 40, 0)
s = 2: (0, 16, 52, 17, 14, 18, 34, 7, 8, 12, 28, 0)
s = 3: (0, 26, 41, 25, 15, 22, 45, 8, 12, 23, 29, 0)
s = 4: (0, 20, 43, 26, 22, 27, 64, 10, 6, 10, 30, 0)
s = 5: (0, 22, 73, 23, 12, 19, 32, 12, 9, 13, 24, 0)
s = 6: (0, 22, 66, 36, 24, 23, 37, 9, 8, 8, 23, 0)
s = 7: (0, 19, 58, 23, 16, 27, 47, 10, 8, 17, 32, 0)
s = 8: (0, 27, 52, 21, 15, 33, 58, 9, 9, 15, 23, 0)
s = 9: (0, 19, 56, 11, 15, 13, 45, 8, 9, 18, 46, 0)
s = 10: (0, 12, 56, 12, 15, 19, 33, 8, 8, 14, 33, 0)
s = 11: (0, 23, 44, 18, 16, 31, 38, 12, 11, 15, 25, 0)
s = 12: (0, 13, 95, 13, 30, 19, 65, 10, 7, 12, 26, 0)
s = 13: (0, 23, 42, 24, 11, 20, 88, 8, 5, 15, 46, 0)
s = 14: (0, 25, 47, 16, 15, 24, 52, 6, 7, 17, 22, 0)
s = 15: (0, 20, 87, 22, 18, 31, 60, 6, 12, 11, 32, 0)
s = 16: (0, 14, 71, 13, 17, 33, 32, 8, 10, 12, 28, 0)
s = 17: (0, 15, 49, 22, 13, 22, 33, 6, 11, 11, 31, 0)
s = 18: (0, 17, 72, 19, 15, 17, 38, 7, 9, 21, 40, 0)
s = 19: (0, 15, 72, 22, 14, 27, 29, 6, 14, 16, 24, 0)
s = 20: (0, 15, 65, 26, 14, 12, 51, 7, 13, 20, 24, 0)
s = 21: (0, 21, 44, 16, 11, 20, 34, 7, 10, 20, 19, 0)
s = 22: (0, 22, 46, 26, 17, 26, 39, 7, 7, 16, 27, 0)
s = 23: (0, 16, 52, 20, 11, 13, 33, 6, 8, 16, 32, 0)
s = 24: (0, 16, 48, 31, 11, 18, 41, 10, 13, 19, 32, 0)
s = 25: (0, 17, 62, 12, 13, 18, 72, 9, 9, 9, 24, 0)
s = 26: (0, 20, 57, 27, 18, 25, 45, 10, 9, 13, 40, 0)
s = 27: (0, 12, 65, 14, 20, 17, 53, 10, 11, 18, 47, 0)
s = 28: (0, 19, 45, 25, 10, 16, 25, 6, 8, 12, 33, 0)
s = 29: (0, 18, 41, 19, 11, 20, 39, 5, 8, 21, 29, 0)
s = 30: (0, 12, 71, 22, 24, 21, 61, 8, 12, 21, 53, 0)
s = 31: (0, 14, 85, 17, 31, 25, 43, 9, 11, 14, 33, 0)
s = 32: (0, 11, 48, 17, 23, 21, 40, 8, 8, 19, 22, 0)
s = 33: (0, 14, 50, 15, 13, 19, 40, 10, 11, 12, 43, 0)
s = 34: (0, 13, 55, 20, 10, 14, 35, 10, 10, 11, 41, 0)
s = 35: (0, 19, 77, 12, 10, 20, 33, 11, 6, 12, 25, 0)
s = 36: (0, 19, 97, 18, 11, 28, 48, 9, 15, 15, 26, 0)
s = 37: (0, 21, 112, 13, 19, 20, 69, 11, 6, 13, 30, 0)
s = 38: (0, 15, 76, 14, 16, 24, 45, 8, 6, 15, 19, 0)
s = 39: (0, 28, 45, 17, 17, 16, 44, 6, 13, 17, 35, 0)
s = 40: (0, 19, 91, 16, 16, 39, 46, 8, 15, 15, 27, 0)
s = 41: (0, 12, 35, 25, 23, 14, 61, 11, 10, 21, 42, 0)
s = 42: (0, 15, 98, 17, 11, 22, 32, 9, 7, 15, 20, 0)
s = 43: (0, 16, 60, 15, 13, 23, 30, 7, 12, 15, 52, 0)
s = 44: (0, 15, 54, 22, 17, 18, 61, 7, 6, 11, 32, 0)
s = 45: (0, 19, 41, 17, 16, 18, 33, 13, 16, 10, 26, 0)
s = 46: (0, 29, 71, 14, 20, 23, 51, 10, 9, 13, 26, 0)
s = 47: (0, 23, 86, 21, 18, 16, 37, 11, 9, 13, 30, 0)
s = 48: (0, 14, 68, 24, 18, 17, 76, 5, 12, 17, 31, 0)
s = 49: (0, 22, 61, 18, 11, 25, 29, 4, 11, 11, 25, 0)
s = 50: (0, 22, 72, 21, 15, 17, 64, 8, 11, 13, 36, 0)
s = 51: (0, 12, 54, 13, 21, 32, 42, 7, 10, 17, 31, 0)
s = 52: (0, 14, 78, 16, 12, 15, 52, 7, 12, 10, 22, 0)
s = 53: (0, 12, 39, 15, 20, 18, 38, 7, 14, 13, 37, 0)
s = 54: (0, 10, 43, 16, 17, 19, 36, 8, 10, 12, 31, 0)
s = 55: (0, 19, 67, 21, 13, 14, 28, 7, 11, 11, 24, 0)
s = 56: (0, 16, 57, 18, 23, 16, 27, 6, 8, 10, 28, 0)
s = 57: (0, 16, 67, 15, 17, 23, 44, 8, 10, 11, 23, 0)
s = 58: (0, 12, 89, 14, 18, 19, 65, 9, 9, 22, 25, 0)
s = 59: (0, 23, 73, 31, 12, 28, 39, 5, 11, 13, 19, 0)
s = 60: (0, 26, 67, 18, 22, 18, 49, 10, 7, 16, 18, 0)
s = 61: (0, 22, 42, 23, 12, 24, 36, 6, 7, 10, 45, 0)
s = 62: (0, 16, 84, 26, 13, 13, 73, 7, 9, 15, 27, 0)
s = 63: (0, 15, 60, 19, 22, 19, 51, 6, 5, 16, 39, 0)
s = 64: (0, 15, 46, 18, 22, 15, 64, 7, 12, 13, 20, 0)
s = 65: (0, 21, 104, 14, 13, 19, 33, 9, 14, 11, 25, 0)
s = 66: (0, 18, 76, 24, 17, 20, 48, 6, 11, 10, 26, 0)
s = 67: (0, 11, 58, 13, 19, 26, 34, 9, 7, 8, 26, 0)
s = 68: (0, 14, 41, 30, 14, 17, 41, 13, 8, 18, 39, 0)
s = 69: (0, 21, 56, 23, 26, 15, 46, 10, 7, 16, 21, 0)
s = 70: (0, 17, 64, 27, 18, 14, 33, 9, 7, 9, 19, 0)
s = 71: (0, 14, 42, 26, 10, 25, 60, 7, 9, 25, 36, 0)
s = 72: (0, 18, 55, 18, 13, 16, 51, 6, 9, 16, 19, 0)
s = 73: (0, 16, 74, 20, 23, 15, 46, 6, 9, 15, 46, 0)
s = 74: (0, 15, 93, 22, 11, 31, 42, 8, 7, 13, 20, 0)
s = 75: (0, 25, 52, 39, 10, 24, 28, 6, 10, 19, 20, 0)
s = 76: (0, 14, 46, 26, 16, 21, 42, 8, 11, 19, 42, 0)
s = 77: (0, 21, 66, 26, 23, 22, 35, 8, 11, 15, 25, 0)
s = 78: (0, 11, 93, 25, 29, 16, 42, 9, 10, 13, 31, 0)
s = 79: (0, 13, 97, 14, 12, 14, 59, 7, 9, 14, 35, 0)
s = 80: (0, 12, 45, 22, 14, 27, 31, 9, 8, 12, 41, 0)
s = 81: (0, 18, 70, 19, 21, 17, 49, 6, 13, 17, 27, 0)
s = 82: (0, 11, 98, 14, 15, 35, 55, 9, 7, 14, 29, 0)
s = 83: (0, 19, 69, 13, 16, 22, 40, 11, 11, 15, 21, 0)
s = 84: (0, 25, 48, 17, 17, 31, 41, 5, 7, 14, 36, 0)
s = 85: (0, 12, 52, 21, 12, 26, 26, 7, 11, 19, 30, 0)
s = 86: (0, 19, 100, 32, 12, 20, 32, 5, 8, 21, 42, 0)
s = 87: (0, 21, 67, 14, 22, 29, 48, 10, 7, 14, 34, 0)
s = 88: (0, 14, 39, 14, 16, 19, 38, 8, 8, 13, 32, 0)
s = 89: (0, 17, 40, 21, 22, 21, 51, 5, 12, 8, 35, 0)
s = 90: (0, 14, 44, 31, 16, 14, 61, 9, 11, 12, 20, 0)
s = 91: (0, 9, 60, 18, 17, 34, 65, 5, 13, 17, 31, 0)
s = 92: (0, 15, 78, 17, 14, 22, 29, 11, 12, 12, 46, 0)
s = 93: (0, 19, 56, 29, 15, 17, 43, 7, 9, 16, 26, 0)
s = 94: (0, 12, 41, 30, 17, 16, 39, 7, 6, 13, 23, 0)
s = 95: (0, 14, 65, 16, 13, 23, 47, 8, 11, 19, 28, 0)
s = 96: (0, 14, 73, 16, 14, 17, 61, 7, 15, 20, 21, 0)
s = 97: (0, 21, 53, 32, 16, 18, 56, 9, 8, 14, 20, 0)
s = 98: (0, 15, 59, 34, 14, 22, 59, 5, 12, 15, 18, 0)
s = 99: (0, 15, 43, 15, 26, 16, 71, 8, 9, 16, 46, 0)
s = 100: (0, 15, 69, 22, 20, 32, 34, 9, 7, 13, 33, 0)
s = 101: (0, 16, 48, 27, 11, 27, 55, 8, 7, 13, 25, 0)
s = 102: (0, 12, 57, 12, 16, 30, 44, 7, 10, 16, 35, 0)
s = 103: (0, 17, 45, 16, 26, 12, 59, 7, 9, 15, 22, 0)
s = 104: (0, 18, 45, 28, 17, 28, 52, 7, 7, 17, 25, 0)
s = 105: (0, 20, 80, 20, 15, 32, 45, 6, 7, 14, 44, 0)
s = 106: (0, 18, 37, 21, 16, 23, 47, 6, 12, 14, 31, 0)
s = 107: (0, 14, 87, 25, 17, 38, 34, 6, 7, 15, 26, 0)
s = 108: (0, 13, 51, 13, 11, 20, 45, 7, 9, 12, 20, 0)
s = 109: (0, 17, 88, 18, 12, 28, 42, 7, 12, 14, 18, 0)
s = 110: (0, 13, 49, 15, 17, 23, 62, 5, 8, 14, 31, 0)
s = 111: (0, 18, 67, 16, 14, 19, 37, 9, 9, 22, 23, 0)
s = 112: (0, 16, 68, 16, 14, 16, 44, 9, 6, 16, 18, 0)
s = 113: (0, 12, 42, 19, 21, 21, 43, 13, 9, 9, 30, 0)
s = 114: (0, 21, 72, 23, 17, 20, 36, 5, 9, 13, 25, 0)
s = 115: (0, 12, 94, 31, 13, 39, 46, 8, 8, 14, 29, 0)
s = 116: (0, 18, 67, 16, 13, 30, 24, 7, 12, 15, 29, 0)
s = 117: (0, 20, 42, 13, 23, 23, 38, 5, 10, 21, 35, 0)
s = 118: (0, 13, 52, 13, 14, 27, 38, 5, 9, 15, 28, 0)
s = 119: (0, 16, 70, 34, 22, 29, 53, 6, 7, 12, 51, 0)
s = 120: (0, 10, 69, 22, 15, 18, 42, 9, 6, 11, 30, 0)
s = 121: (0, 21, 58, 13, 21, 31, 29, 8, 9, 16, 25, 0)
s = 122: (0, 12, 53, 28, 29, 25, 28, 5, 9, 13, 21, 0)
s = 123: (0, 13, 47, 28, 14, 19, 36, 12, 10, 14, 41, 0)
s = 124: (0, 12, 57, 29, 15, 19, 50, 7, 8, 11, 31, 0)
s = 125: (0, 21, 80, 32, 17, 26, 47, 5, 10, 21, 33, 0)
s = 126: (0, 16, 76, 18, 20, 22, 61, 7, 15, 12, 26, 0)
s = 127: (0, 15, 66, 15, 17, 16, 48, 5, 6, 23, 17, 0)
s = 128: (0, 10, 62, 33, 12, 19, 35, 9, 6, 25, 34, 0)
s = 129: (0, 12, 79, 14, 16, 18, 33, 7, 7, 12, 22, 0)
s = 130: (0, 16, 85, 24, 20, 25, 44, 5, 12, 13, 46, 0)
s = 131: (0, 16, 86, 13, 18, 26, 44, 6, 11, 9, 38, 0)
s = 132: (0, 12, 66, 25, 17, 30, 59, 7, 11, 23, 24, 0)
s = 133: (0, 13, 82, 18, 16, 24, 43, 5, 9, 12, 32, 0)
s = 134: (0, 12, 53, 31, 11, 15, 44, 13, 10, 19, 21, 0)
s = 135: (0, 13, 52, 22, 22, 16, 28, 5, 7, 15, 28, 0)
s = 136: (0, 16, 86, 21, 24, 12, 55, 7, 8, 18, 30, 0)
s = 137: (0, 20, 69, 19, 28, 30, 57, 6, 10, 15, 32, 0)
s = 138: (0, 18, 81, 11, 12, 29, 47, 8, 9, 12, 40, 0)
s = 139: (0, 21, 98, 18, 13, 23, 44, 10, 13, 20, 44, 0)
s = 140: (0, 15, 64, 17, 21, 15, 33, 8, 11, 10, 21, 0)
s = 141: (0, 10, 71, 31, 12, 20, 50, 7, 9, 18, 48, 0)
s = 142: (0, 23, 58, 20, 16, 29, 39, 6, 9, 11, 27, 0)
s = 143: (0, 25, 85, 13, 19, 17, 48, 6, 9, 9, 36, 0)
s = 144: (0, 12, 53, 19, 26, 19, 60, 7, 6, 13, 29, 0)
s = 145: (0, 21, 75, 27, 18, 17, 36, 10, 7, 16, 30, 0)
s = 146: (0, 11, 49, 17, 20, 17, 56, 9, 9, 12, 30, 0)
s = 147: (0, 10, 84, 18, 17, 17, 38, 7, 13, 12, 29, 0)
s = 148: (0, 21, 49, 19, 22, 23, 26, 9, 8, 12, 35, 0)
s = 149: (0, 13, 80, 18, 11, 34, 60, 7, 9, 15, 29, 0)
s = 150: (0, 14, 42, 18, 19, 17, 43, 9, 12, 14, 35, 0)
s = 151: (0, 16, 96, 18, 23, 23, 49, 6, 14, 14, 30, 0)
s = 152: (0, 11, 78, 24, 16, 12, 39, 7, 14, 14, 18, 0)
s = 153: (0, 22, 74, 11, 10, 30, 57, 7, 14, 19, 19, 0)
s = 154: (0, 14, 74, 22, 15, 24, 62, 5, 12, 10, 26, 0)
s = 155: (0, 16, 56, 26, 14, 26, 31, 9, 10, 10, 37, 0)
s = 156: (0, 12, 95, 16, 19, 14, 46, 8, 11, 26, 33, 0)
s = 157: (0, 16, 89, 19, 15, 19, 37, 5, 12, 21, 25, 0)
s = 158: (0, 17, 39, 15, 19, 20, 25, 6, 6, 10, 34, 0)
s = 159: (0, 16, 55, 34, 13, 26, 37, 8, 6, 18, 43, 0)
s = 160: (0, 16, 82, 23, 14, 18, 27, 5, 7, 19, 37, 0)
s = 161: (0, 20, 64, 23, 19, 24, 45, 6, 11, 9, 19, 0)
s = 162: (0, 24, 63, 26, 18, 23, 49, 10, 10, 9, 26, 0)
s = 163: (0, 16, 89, 24, 23, 13, 30, 9, 14, 12, 32, 0)
s = 164: (0, 12, 59, 18, 15, 23, 40, 5, 6, 14, 23, 0)
s = 165: (0, 19, 62, 17, 21, 36, 73, 6, 8, 18, 35, 0)
s = 166: (0, 20, 51, 16, 14, 16, 53, 6, 7, 9, 48, 0)
s = 167: (0, 12, 60, 15, 21, 16, 43, 6, 10, 14, 26, 0)
s = 168: (0, 16, 45, 21, 13, 18, 25, 7, 8, 13, 34, 0)
s = 169: (0, 14, 57, 32, 18, 22, 43, 5, 9, 10, 40, 0)
s = 170: (0, 16, 63, 21, 12, 23, 27, 10, 9, 16, 24, 0)
s = 171: (0, 19, 66, 19, 12, 28, 39, 7, 9, 17, 24, 0)
s = 172: (0, 14, 35, 18, 20, 13, 55, 6, 6, 15, 29, 0)
s = 173: (0, 13, 43, 20, 11, 18, 26, 7, 7, 16, 32, 0)
s = 174: (0, 19, 62, 20, 14, 21, 29, 6, 11, 14, 18, 0)
s = 175: (0, 12, 56, 14, 13, 14, 30, 8, 9, 14, 24, 0)
s = 176: (0, 25, 78, 30, 12, 16, 50, 5, 14, 23, 18, 0)
s = 177: (0, 13, 39, 15, 14, 39, 66, 6, 14, 20, 39, 0)
s = 178: (0, 17, 87, 25, 15, 27, 57, 8, 7, 10, 35, 0)
s = 179: (0, 11, 80, 20, 11, 22, 32, 10, 13, 12, 41, 0)
s = 180: (0, 21, 57, 20, 17, 31, 58, 11, 12, 12, 39, 0)
s = 181: (0, 24, 82, 20, 14, 23, 37, 7, 11, 17, 30, 0)
s = 182: (0, 17, 52, 23, 21, 18, 51, 8, 12, 21, 17, 0)
s = 183: (0, 21, 42, 28, 16, 15, 68, 7, 9, 17, 26, 0)
s = 184: (0, 24, 68, 17, 19, 23, 39, 6, 8, 14, 29, 0)
s = 185: (0, 22, 57, 18, 11, 18, 32, 9, 10, 14, 38, 0)
s = 186: (0, 9, 66, 27, 20, 20, 39, 5, 11, 14, 17, 0)
s = 187: (0, 14, 56, 24, 15, 20, 31, 5, 10, 10, 29, 0)
s = 188: (0, 14, 56, 13, 23, 23, 41, 10, 6, 12, 31, 0)
s = 189: (0, 20, 61, 22, 31, 32, 66, 8, 9, 11, 38, 0)
s = 190: (0, 18, 58, 13, 10, 14, 52, 7, 6, 21, 43, 0)
s = 191: (0, 13, 79, 19, 12, 14, 76, 9, 10, 14, 27, 0)
s = 192: (0, 21, 35, 21, 12, 33, 63, 6, 6, 17, 21, 0)
s = 193: (0, 15, 63, 12, 17, 20, 26, 11, 10, 19, 40, 0)
s = 194: (0, 9, 42, 17, 14, 26, 63, 4, 10, 17, 37, 0)
s = 195: (0, 16, 41, 25, 21, 17, 54, 4, 11, 9, 47, 0)
s = 196: (0, 16, 76, 19, 16, 17, 26, 5, 11, 8, 21, 0)
s = 197: (0, 29, 42, 16, 18, 28, 48, 9, 6, 12, 28, 0)
s = 198: (0, 13, 47, 17, 26, 25, 58, 9, 14, 20, 51, 0)
s = 199: (0, 13, 50, 23, 16, 18, 64, 9, 14, 20, 53, 0)
s = 200: (0, 11, 60, 23, 14, 30, 37, 7, 11, 12, 25, 0)
************************************************************************
ES/LS-VALUES:
jobnr.   ES(i)    LS(i)
------------------------------------------------------------------------
  0        0        0
  1        0       41
  2        0       56
  3        0       61
  4        7       49
  5       14       57
  6        7       65
  7       14       75
  8       15       77
  9       16       75
 10       27       70
 11       35       79
************************************************************************
BIG-M-VALUES:
M1 = 77, M2 = 420
************************************************************************
